c Random generated cnf formula, satisfiable: true
p cnf 10 50
-3 -9 -1 0
6 1 10 0
-3 1 -6 0
4 10 1 0
-2 10 -3 0
6 -9 7 0
-8 2 -7 0
9 3 -4 0
-2 5 -7 0
-6 7 -1 0
2 3 1 0
-10 9 1 0
-7 9 -8 0
7 2 -9 0
5 -1 -6 0
3 7 6 0
5 1 -6 0
5 3 -9 0
-9 6 -7 0
-6 7 -3 0
-3 -6 -5 0
6 8 10 0
-6 -10 -4 0
8 3 -9 0
6 4 1 0
6 -7 3 0
-10 -5 -1 0
4 -1 -8 0
-1 9 -10 0
5 -7 -8 0
-7 3 6 0
-4 -8 7 0
-5 -1 3 0
-4 9 8 0
-6 -2 10 0
-3 1 -4 0
-9 -8 -1 0
-4 3 -10 0
-4 9 6 0
2 -8 -3 0
-5 10 -8 0
-10 7 4 0
6 -7 9 0
-3 -7 -2 0
-3 5 9 0
-1 8 -7 0
-8 7 -2 0
2 10 7 0
-3 1 -8 0
7 -9 -2 0
